12
0 66 90 96 41 73 35 93 66 98 69 47 
52 0 63 67 67 72 2 60 51 75 75 60 
78 71 0 44 41 91 51 61 51 92 14 85 
44 73 91 0 28 16 70 100 55 21 49 85 
5 18 87 90 0 56 37 48 3 87 65 64 
54 29 97 21 54 0 90 50 51 8 20 27 
3 27 53 66 36 72 0 2 66 9 29 59 
39 90 9 98 66 89 21 0 85 70 12 46 
32 6 22 15 22 20 22 59 0 38 25 22 
70 46 81 95 60 7 57 60 79 0 32 92 
58 42 23 59 31 22 84 57 70 16 0 97 
33 61 15 33 89 48 92 25 74 37 82 0 
